0  500 500
1  580 698
2  10  415
3  183 455
4  325 750
5  104 269
6  535 616
7  822 742
8  944 543
9  49  647
10 998 708
11 667 635
12 948 548
13 302 292
14 868 508
15 13  415
16 540 956
17 400 51
18 394 844
19 922 103
20 738 629
21 750 3
22 761 692
23 121 61
24 673 921
25 597 350
26 536 434
27 539 37
28 19  674
29 391 34
30 210 573
31 944 611
32 680 471
33 951 657
34 702 587
35 711 896
36 274 946
37 719 351
38 510 226
39 757 162
40 690 413
41 784 307
42 879 471
43 328 938
44 642 446
45 516 126
46 33  358
47 526 336
48 908 179
49 792 142
50 400 94
51 315 351
52 806 58
53 28  291
54 812 352
55 356 145
56 676 953
57 909 538
58 755 714
59 428 611